Route #1: 16 20 3 11 40 46 25
Route #2: 4 21 53 30 49 44 28 6
Route #3: 2 1 48 22 36 31
Route #4: 42 45 5 54 10
Route #5: 34 24 58 23 47 14
Route #6: 32 9 51 12 56 43 50
Route #7: 39 26 17 37 57 27 19
Route #8: 7 29 13 8 15 55 35
Route #9: 41 33 38 59 52 18
Cost 1354
Time 0.132765
